Read MPS format model from file dat/rmp/DER_24_32768_10.mps
Reading time = 0.64 seconds
: 32792 rows, 73800 columns, 1662879 nonzeros
Gurobi Optimizer version 9.0.0 build v9.0.0rc2 (linux64)
Optimize a model with 32792 rows, 73800 columns and 1662879 nonzeros
Model fingerprint: 0x4d174020
Coefficient statistics:
  Matrix range     [5e-07, 1e+01]
  Objective range  [2e-01, 1e+03]
  Bounds range     [2e+05, 2e+05]
  RHS range        [1e+00, 1e+00]
Ordering time: 0.02s

Barrier statistics:
 AA' NZ     : 7.356e+05
 Factor NZ  : 1.039e+06 (roughly 50 MBytes of memory)
 Factor Ops : 3.617e+07 (less than 1 second per iteration)
 Threads    : 1

                  Objective                Residual
Iter       Primal          Dual         Primal    Dual     Compl     Time
   0   3.16011945e+09 -1.17795812e+08  1.60e+08 8.87e-03  1.36e+06     0s
   1   4.15060505e+07 -2.59077935e+07  1.99e+06 1.82e-12  1.73e+04     0s
   2   2.27389705e+06 -1.49533755e+07  1.05e+05 3.64e-12  1.09e+03     1s
   3   5.02839600e+04 -8.63889347e+06  5.61e-09 3.64e-12  1.18e+02     1s
   4   4.80424455e+04  3.26152121e+04  3.77e-10 3.64e-12  2.09e-01     1s
   5   4.73762383e+04  4.52139697e+04  1.19e-09 3.64e-12  2.93e-02     1s
   6   4.71804484e+04  4.59864075e+04  1.06e-09 1.82e-12  1.62e-02     1s
   7   4.69317833e+04  4.65419030e+04  1.58e-09 3.64e-12  5.28e-03     1s
   8   4.67789091e+04  4.67161630e+04  8.67e-10 1.82e-12  8.50e-04     1s
   9   4.67635935e+04  4.67239990e+04  5.78e-09 1.82e-12  5.36e-04     1s
  10   4.67573877e+04  4.67298554e+04  1.11e-09 1.82e-12  3.73e-04     1s
  11   4.67533355e+04  4.67334812e+04  5.43e-09 1.82e-12  2.69e-04     1s
  12   4.67515608e+04  4.67361071e+04  6.70e-09 1.82e-12  2.09e-04     1s
  13   4.67499189e+04  4.67379835e+04  5.93e-09 1.82e-12  1.62e-04     2s
  14   4.67479190e+04  4.67389722e+04  3.13e-09 1.82e-12  1.21e-04     2s
  15   4.67469441e+04  4.67394719e+04  6.47e-09 3.64e-12  1.01e-04     2s
  16   4.67454930e+04  4.67396110e+04  8.68e-09 3.64e-12  7.97e-05     2s
  17   4.67442452e+04  4.67399055e+04  9.01e-09 3.64e-12  5.88e-05     2s
  18   4.67438597e+04  4.67400506e+04  6.68e-09 3.64e-12  5.16e-05     2s
  19   4.67431976e+04  4.67402382e+04  1.02e-08 4.03e-12  4.01e-05     2s
  20   4.67428080e+04  4.67402984e+04  8.36e-09 4.68e-12  3.40e-05     2s
  21   4.67425316e+04  4.67403480e+04  1.45e-08 5.24e-12  2.96e-05     2s
  22   4.67420713e+04  4.67404678e+04  1.02e-08 5.53e-12  2.17e-05     2s
  23   4.67417904e+04  4.67405136e+04  1.61e-08 5.95e-12  1.73e-05     2s
  24   4.67415319e+04  4.67405550e+04  2.37e-08 5.38e-12  1.32e-05     3s
  25   4.67412454e+04  4.67406068e+04  4.71e-08 2.44e-12  8.65e-06     3s
  26   4.67409527e+04  4.67406310e+04  1.12e-07 1.82e-12  4.36e-06     3s
  27   4.67407829e+04  4.67406437e+04  9.53e-08 1.82e-12  1.88e-06     3s
  28   4.67407612e+04  4.67406471e+04  2.74e-07 1.82e-12  1.55e-06     3s
  29   4.67407051e+04  4.67406498e+04  1.79e-07 1.82e-12  7.50e-07     3s
  30   4.67406870e+04  4.67406508e+04  2.75e-07 1.82e-12  4.90e-07     3s
  31   4.67406701e+04  4.67406521e+04  2.24e-07 3.64e-12  2.44e-07     3s
  32   4.67406685e+04  4.67406527e+04  1.93e-07 1.82e-12  2.14e-07     3s
  33   4.67406536e+04  4.67406529e+04  5.65e-06 1.82e-12  9.04e-09     3s
  34   4.67406532e+04  4.67406532e+04  3.13e-08 1.82e-12  1.73e-10     3s

Barrier solved model in 34 iterations and 3.31 seconds
Optimal objective 4.67406532e+04

Solve time: 3.311632768
Barrier iterations: 34
